n = 80;
rows = 172;
supports = [|
  {1},2..8,
 |{1},74..80,
 |{2},{1},
 |{2},3..9,
 |{2},75..80,
 |{3},1..2,
 |{3},4..10,
 |{3},76..80,
 |{4},1..3,
 |{4},5..11,
 |{4},77..80,
 |{5},1..4,
 |{5},6..12,
 |{5},78..80,
 |{6},1..5,
 |{6},7..13,
 |{6},79..80,
 |{7},1..6,
 |{7},8..14,
 |{7},{80},
 |{8},1..7,
 |{8},9..15,
 |{9},2..8,
 |{9},10..16,
 |{10},3..9,
 |{10},11..17,
 |{11},4..10,
 |{11},12..18,
 |{12},5..11,
 |{12},13..19,
 |{13},6..12,
 |{13},14..20,
 |{14},7..13,
 |{14},15..21,
 |{15},8..14,
 |{15},16..22,
 |{16},9..15,
 |{16},17..23,
 |{17},10..16,
 |{17},18..24,
 |{18},11..17,
 |{18},19..25,
 |{19},12..18,
 |{19},20..26,
 |{20},13..19,
 |{20},21..27,
 |{21},14..20,
 |{21},22..28,
 |{22},15..21,
 |{22},23..29,
 |{23},16..22,
 |{23},24..30,
 |{24},17..23,
 |{24},25..31,
 |{25},18..24,
 |{25},26..32,
 |{26},19..25,
 |{26},27..33,
 |{27},20..26,
 |{27},28..34,
 |{28},21..27,
 |{28},29..35,
 |{29},22..28,
 |{29},30..36,
 |{30},23..29,
 |{30},31..37,
 |{31},24..30,
 |{31},32..38,
 |{32},25..31,
 |{32},33..39,
 |{33},26..32,
 |{33},34..40,
 |{34},27..33,
 |{34},35..41,
 |{35},28..34,
 |{35},36..42,
 |{36},29..35,
 |{36},37..43,
 |{37},30..36,
 |{37},38..44,
 |{38},31..37,
 |{38},39..45,
 |{39},32..38,
 |{39},40..46,
 |{40},33..39,
 |{40},41..47,
 |{41},34..40,
 |{41},42..48,
 |{42},35..41,
 |{42},43..49,
 |{43},36..42,
 |{43},44..50,
 |{44},37..43,
 |{44},45..51,
 |{45},38..44,
 |{45},46..52,
 |{46},39..45,
 |{46},47..53,
 |{47},40..46,
 |{47},48..54,
 |{48},41..47,
 |{48},49..55,
 |{49},42..48,
 |{49},50..56,
 |{50},43..49,
 |{50},51..57,
 |{51},44..50,
 |{51},52..58,
 |{52},45..51,
 |{52},53..59,
 |{53},46..52,
 |{53},54..60,
 |{54},47..53,
 |{54},55..61,
 |{55},48..54,
 |{55},56..62,
 |{56},49..55,
 |{56},57..63,
 |{57},50..56,
 |{57},58..64,
 |{58},51..57,
 |{58},59..65,
 |{59},52..58,
 |{59},60..66,
 |{60},53..59,
 |{60},61..67,
 |{61},54..60,
 |{61},62..68,
 |{62},55..61,
 |{62},63..69,
 |{63},56..62,
 |{63},64..70,
 |{64},57..63,
 |{64},65..71,
 |{65},58..64,
 |{65},66..72,
 |{66},59..65,
 |{66},67..73,
 |{67},60..66,
 |{67},68..74,
 |{68},61..67,
 |{68},69..75,
 |{69},62..68,
 |{69},70..76,
 |{70},63..69,
 |{70},71..77,
 |{71},64..70,
 |{71},72..78,
 |{72},65..71,
 |{72},73..79,
 |{73},66..72,
 |{73},74..80,
 |{74},67..73,
 |{74},75..80,
 |{74},{1},
 |{75},68..74,
 |{75},76..80,
 |{75},1..2,
 |{76},69..75,
 |{76},77..80,
 |{76},1..3,
 |{77},70..76,
 |{77},78..80,
 |{77},1..4,
 |{78},71..77,
 |{78},79..80,
 |{78},1..5,
 |{79},72..78,
 |{79},{80},
 |{79},1..6,
 |{80},73..79,
 |{80},1..7 |];

t = 424;

indexes = [|
    0,4,
  | 0,6,
  | 0,9,
  | 0,17,
  | 0,25,
  | 0,37,
  | 0,54,
  | 0,58,
  | 0,61,
  | 0,70,
  | 0,78,
  | 1,18,
  | 1,27,
  | 1,28,
  | 1,29,
  | 1,41,
  | 1,48,
  | 1,59,
  | 1,60,
  | 1,65,
  | 1,67,
  | 1,69,
  | 2,8,
  | 2,23,
  | 2,32,
  | 2,35,
  | 2,36,
  | 2,39,
  | 2,43,
  | 2,45,
  | 2,49,
  | 2,71,
  | 2,79,
  | 3,28,
  | 3,30,
  | 3,33,
  | 3,48,
  | 3,51,
  | 3,52,
  | 3,55,
  | 3,57,
  | 3,60,
  | 3,65,
  | 3,66,
  | 4,6,
  | 4,14,
  | 4,17,
  | 4,22,
  | 4,25,
  | 4,31,
  | 4,37,
  | 4,54,
  | 4,56,
  | 4,70,
  | 5,9,
  | 5,30,
  | 5,52,
  | 5,57,
  | 5,58,
  | 5,61,
  | 5,62,
  | 5,66,
  | 5,72,
  | 5,74,
  | 5,78,
  | 6,9,
  | 6,17,
  | 6,25,
  | 6,37,
  | 6,54,
  | 6,58,
  | 6,61,
  | 6,70,
  | 6,78,
  | 7,11,
  | 7,13,
  | 7,21,
  | 7,26,
  | 7,46,
  | 7,53,
  | 7,63,
  | 7,64,
  | 7,73,
  | 7,75,
  | 7,77,
  | 8,21,
  | 8,23,
  | 8,35,
  | 8,39,
  | 8,45,
  | 8,46,
  | 8,64,
  | 8,71,
  | 8,77,
  | 8,79,
  | 9,17,
  | 9,58,
  | 9,61,
  | 9,62,
  | 9,70,
  | 9,72,
  | 9,74,
  | 9,78,
  | 10,11,
  | 10,20,
  | 10,26,
  | 10,34,
  | 10,44,
  | 10,63,
  | 10,73,
  | 11,13,
  | 11,20,
  | 11,26,
  | 11,34,
  | 11,44,
  | 11,53,
  | 11,63,
  | 11,73,
  | 11,75,
  | 12,15,
  | 12,18,
  | 12,19,
  | 12,27,
  | 12,29,
  | 12,38,
  | 12,40,
  | 12,41,
  | 12,42,
  | 12,68,
  | 12,76,
  | 13,21,
  | 13,26,
  | 13,46,
  | 13,53,
  | 13,63,
  | 13,64,
  | 13,73,
  | 13,75,
  | 13,77,
  | 14,22,
  | 14,25,
  | 14,31,
  | 14,32,
  | 14,36,
  | 14,37,
  | 14,43,
  | 14,49,
  | 14,54,
  | 14,56,
  | 15,18,
  | 15,19,
  | 15,27,
  | 15,29,
  | 15,38,
  | 15,40,
  | 15,41,
  | 15,42,
  | 15,68,
  | 15,76,
  | 16,24,
  | 16,38,
  | 16,40,
  | 16,42,
  | 16,47,
  | 16,50,
  | 16,68,
  | 17,25,
  | 17,37,
  | 17,54,
  | 17,58,
  | 17,61,
  | 17,70,
  | 17,78,
  | 18,19,
  | 18,27,
  | 18,29,
  | 18,41,
  | 18,59,
  | 18,67,
  | 18,69,
  | 18,76,
  | 19,27,
  | 19,29,
  | 19,38,
  | 19,40,
  | 19,41,
  | 19,42,
  | 19,68,
  | 19,76,
  | 20,26,
  | 20,34,
  | 20,44,
  | 20,63,
  | 20,73,
  | 21,39,
  | 21,45,
  | 21,46,
  | 21,53,
  | 21,64,
  | 21,75,
  | 21,77,
  | 21,79,
  | 22,25,
  | 22,31,
  | 22,32,
  | 22,36,
  | 22,37,
  | 22,43,
  | 22,49,
  | 22,54,
  | 22,56,
  | 23,32,
  | 23,35,
  | 23,36,
  | 23,39,
  | 23,43,
  | 23,45,
  | 23,49,
  | 23,71,
  | 23,79,
  | 24,38,
  | 24,40,
  | 24,42,
  | 24,47,
  | 24,50,
  | 24,68,
  | 25,31,
  | 25,37,
  | 25,54,
  | 25,56,
  | 25,70,
  | 26,34,
  | 26,44,
  | 26,53,
  | 26,63,
  | 26,73,
  | 26,75,
  | 27,29,
  | 27,41,
  | 27,59,
  | 27,67,
  | 27,69,
  | 27,76,
  | 28,33,
  | 28,48,
  | 28,51,
  | 28,55,
  | 28,59,
  | 28,60,
  | 28,65,
  | 28,67,
  | 28,69,
  | 29,41,
  | 29,59,
  | 29,67,
  | 29,69,
  | 29,76,
  | 30,33,
  | 30,51,
  | 30,52,
  | 30,55,
  | 30,57,
  | 30,62,
  | 30,66,
  | 30,72,
  | 30,74,
  | 31,32,
  | 31,36,
  | 31,37,
  | 31,43,
  | 31,49,
  | 31,54,
  | 31,56,
  | 32,35,
  | 32,36,
  | 32,43,
  | 32,49,
  | 32,56,
  | 32,71,
  | 33,48,
  | 33,51,
  | 33,52,
  | 33,55,
  | 33,57,
  | 33,60,
  | 33,65,
  | 33,66,
  | 34,44,
  | 34,63,
  | 34,73,
  | 35,36,
  | 35,39,
  | 35,43,
  | 35,45,
  | 35,49,
  | 35,71,
  | 35,79,
  | 36,43,
  | 36,49,
  | 36,56,
  | 36,71,
  | 37,54,
  | 37,56,
  | 37,70,
  | 38,40,
  | 38,42,
  | 38,47,
  | 38,50,
  | 38,68,
  | 38,76,
  | 39,45,
  | 39,46,
  | 39,64,
  | 39,71,
  | 39,77,
  | 39,79,
  | 40,42,
  | 40,47,
  | 40,50,
  | 40,68,
  | 40,76,
  | 41,59,
  | 41,67,
  | 41,69,
  | 41,76,
  | 42,47,
  | 42,50,
  | 42,68,
  | 42,76,
  | 43,49,
  | 43,56,
  | 43,71,
  | 44,63,
  | 44,73,
  | 45,46,
  | 45,64,
  | 45,71,
  | 45,77,
  | 45,79,
  | 46,53,
  | 46,64,
  | 46,75,
  | 46,77,
  | 46,79,
  | 47,50,
  | 47,68,
  | 48,51,
  | 48,55,
  | 48,59,
  | 48,60,
  | 48,65,
  | 48,67,
  | 48,69,
  | 49,56,
  | 49,71,
  | 50,68,
  | 51,52,
  | 51,55,
  | 51,57,
  | 51,60,
  | 51,65,
  | 51,66,
  | 52,55,
  | 52,57,
  | 52,62,
  | 52,66,
  | 52,72,
  | 52,74,
  | 53,63,
  | 53,64,
  | 53,73,
  | 53,75,
  | 53,77,
  | 54,56,
  | 54,70,
  | 55,57,
  | 55,60,
  | 55,65,
  | 55,66,
  | 57,62,
  | 57,66,
  | 57,72,
  | 57,74,
  | 58,61,
  | 58,62,
  | 58,70,
  | 58,72,
  | 58,74,
  | 58,78,
  | 59,60,
  | 59,65,
  | 59,67,
  | 59,69,
  | 60,65,
  | 60,67,
  | 60,69,
  | 61,62,
  | 61,70,
  | 61,72,
  | 61,74,
  | 61,78,
  | 62,66,
  | 62,72,
  | 62,74,
  | 62,78,
  | 63,73,
  | 63,75,
  | 64,75,
  | 64,77,
  | 64,79,
  | 65,67,
  | 65,69,
  | 66,72,
  | 66,74,
  | 67,69,
  | 68,76,
  | 70,78,
  | 71,79,
  | 72,74,
  | 72,78,
  | 73,75,
  | 74,78,
  | 75,77,
  | 77,79 |];

